NAME: rue_15_3
TYPE: TSP
DIMENSION: 15
EDGE_WEIGHT_TYPE: EUC_2D
NODE_COORD_SECTION
1 38 46
2 38 62
3 46 36
4 46 19
5 13 19
6 24 77
7 3 17
8 54 7
9 18 63
10 47 28
11 4 47
12 42 46
13 8 65
14 66 63
15 50 12
